79
150
105	5
103	6
102	3
101	2
99	2
98	4
97	3
96	2
95	2
94	4
93	1
92	2
91	4
90	2
89	1
87	3
86	2
85	2
84	3
83	1
81	2
80	3
79	1
78	2
77	5
76	2
75	1
74	3
73	2
72	2
71	1
70	1
69	2
68	1
67	1
66	3
65	3
64	4
63	3
61	2
59	3
58	4
57	1
56	3
55	1
54	4
52	2
51	3
50	3
49	1
48	1
47	4
46	1
45	4
44	3
43	3
41	3
40	4
39	3
37	3
35	2
34	3
33	2
32	1
31	2
30	3
29	4
28	4
27	6
26	2
24	1
22	1
21	1
20	2
19	3
18	1
17	5
16	4
15	1
